p edge 50 200
e 1 16
e 1 28
e 1 34
e 1 37
e 2 36
e 2 37
e 2 43
e 2 44
e 3 13
e 3 22
e 3 28
e 3 50
e 4 10
e 4 14
e 4 27
e 4 41
e 5 23
e 5 27
e 5 37
e 5 41
e 6 12
e 6 18
e 6 19
e 6 30
e 7 13
e 7 24
e 7 31
e 7 33
e 8 3
e 8 18
e 8 30
e 8 36
e 9 18
e 9 20
e 9 23
e 9 44
e 10 7
e 10 12
e 10 30
e 10 43
e 11 20
e 11 22
e 11 24
e 11 35
e 12 16
e 12 25
e 12 38
e 12 49
e 13 14
e 13 21
e 13 27
e 13 42
e 14 7
e 14 13
e 14 24
e 14 31
e 15 6
e 15 21
e 15 32
e 15 47
e 16 26
e 16 28
e 16 35
e 16 37
e 17 6
e 17 14
e 17 30
e 17 47
e 18 8
e 18 25
e 18 33
e 18 46
e 19 15
e 19 18
e 19 35
e 19 46
e 20 1
e 20 15
e 20 38
e 20 44
e 21 9
e 21 27
e 21 29
e 21 39
e 22 2
e 22 4
e 22 5
e 22 35
e 23 11
e 23 27
e 23 33
e 23 50
e 24 13
e 24 19
e 24 27
e 24 40
e 25 37
e 25 40
e 25 45
e 25 46
e 26 18
e 26 21
e 26 29
e 26 35
e 27 2
e 27 3
e 27 18
e 27 48
e 28 2
e 28 3
e 28 7
e 28 43
e 29 16
e 29 31
e 29 37
e 29 42
e 30 20
e 30 40
e 30 41
e 30 45
e 31 18
e 31 30
e 31 32
e 31 48
e 32 10
e 32 22
e 32 26
e 32 28
e 33 4
e 33 7
e 33 18
e 33 48
e 34 7
e 34 16
e 34 20
e 34 37
e 35 22
e 35 25
e 35 29
e 35 33
e 36 4
e 36 20
e 36 21
e 36 30
e 37 9
e 37 16
e 37 19
e 37 41
e 38 19
e 38 24
e 38 47
e 38 50
e 39 2
e 39 22
e 39 46
e 39 47
e 40 6
e 40 15
e 40 30
e 40 39
e 41 1
e 41 29
e 41 42
e 41 44
e 42 1
e 42 15
e 42 25
e 42 35
e 43 7
e 43 15
e 43 38
e 43 44
e 44 10
e 44 16
e 44 28
e 44 42
e 45 2
e 45 33
e 45 37
e 45 38
e 46 8
e 46 25
e 46 26
e 46 29
e 47 9
e 47 22
e 47 30
e 47 46
e 48 19
e 48 36
e 48 38
e 48 44
e 49 12
e 49 29
e 49 29
e 49 44
e 50 5
e 50 27
e 50 30
e 50 44
